echo both

include		in.partitions

include		in.temp
include		in.pressure
include 	in.seed
units		metal
atom_style	full
include		in.box.${p_id}
include 	in.setup

minimize 1.0e-2 1.0e-3 100 1000

reset_timestep 	0


# NVT

fix             1 all nve
fix             2 all temp/csvr ${temperature} ${temperature} ${tempDamp} ${seed}

velocity        all create ${temperature} ${seed} dist gaussian
run             25000

unfix           1
unfix           2

# NVT

fix             1 all nph aniso ${pressure} ${pressure} ${pressureDamp}
fix             2 all temp/csvr ${temperature} ${temperature} ${tempDamp} ${seed}

run             25000

unfix           1
unfix           2

# NPT

include		in.dump

#reset_timestep 	0

#fix             1 all plumed plumedfile plumed.dat outfile plumed.out
fix             2 all nph aniso ${pressure} ${pressure} ${pressureDamp}
fix             3 all temp/csvr ${temperature} ${temperature} ${tempDamp} ${seed}
fix		4 all momentum 10000 linear 1 1 1 angular

run             100000

write_data	data.final.${p_id}

