### Al - Sturgeon and Laird Potential Parameters ###
pair_style 	eam/fs
pair_coeff 	* * MDSL.eam.fs Al
